benchmarks_CP/INST_36x36/35/inst36x36_35_68.dzn
S=6;
start=[|
-1,	-1,	20,	-1,	-1,	-1,	6,	-1,	-1,	-1,	3,	-1,	-1,	-1,	-1,	12,	-1,	-1,	-1,	15,	19,	9,	-1,	-1,	-1,	-1,	24,	7,	-1,	22,	-1,	-1,	-1,	2,	-1,	-1|
9,	24,	-1,	-1,	-1,	-1,	32,	-1,	14,	-1,	-1,	-1,	31,	22,	-1,	25,	-1,	-1,	-1,	-1,	11,	-1,	-1,	-1,	4,	-1,	-1,	-1,	-1,	-1,	-1,	36,	-1,	-1,	-1,	-1|
8,	-1,	33,	10,	19,	-1,	2,	-1,	-1,	-1,	-1,	31,	32,	-1,	14,	6,	4,	15,	-1,	-1,	23,	-1,	-1,	34,	36,	-1,	16,	-1,	-1,	-1,	-1,	35,	29,	30,	18,	-1|
17,	35,	23,	11,	-1,	-1,	15,	7,	-1,	-1,	33,	-1,	-1,	-1,	-1,	-1,	36,	18,	1,	21,	6,	-1,	-1,	8,	27,	34,	-1,	-1,	-1,	31,	5,	24,	-1,	-1,	-1,	12|
-1,	29,	12,	-1,	-1,	-1,	8,	-1,	36,	-1,	24,	-1,	-1,	30,	20,	5,	-1,	10,	-1,	3,	7,	-1,	22,	31,	17,	35,	-1,	14,	-1,	-1,	11,	-1,	9,	-1,	-1,	-1|
-1,	-1,	-1,	13,	-1,	-1,	-1,	25,	-1,	-1,	-1,	-1,	-1,	-1,	-1,	-1,	-1,	-1,	-1,	-1,	-1,	-1,	-1,	20,	9,	11,	-1,	-1,	-1,	6,	-1,	-1,	-1,	-1,	-1,	-1|
-1,	-1,	-1,	34,	-1,	23,	-1,	20,	18,	-1,	-1,	-1,	-1,	-1,	-1,	-1,	15,	-1,	-1,	11,	-1,	-1,	-1,	4,	-1,	-1,	6,	-1,	24,	36,	-1,	26,	-1,	-1,	-1,	-1|
-1,	-1,	29,	-1,	-1,	-1,	24,	27,	25,	-1,	14,	-1,	-1,	-1,	-1,	1,	-1,	-1,	13,	-1,	-1,	-1,	-1,	33,	-1,	-1,	9,	-1,	-1,	-1,	-1,	11,	21,	-1,	35,	-1|
6,	-1,	32,	33,	-1,	11,	-1,	-1,	12,	-1,	31,	-1,	8,	-1,	-1,	-1,	16,	14,	-1,	-1,	5,	35,	28,	-1,	-1,	-1,	-1,	-1,	-1,	30,	-1,	-1,	-1,	-1,	-1,	-1|
13,	-1,	-1,	14,	-1,	-1,	10,	-1,	-1,	-1,	-1,	-1,	-1,	-1,	-1,	7,	-1,	-1,	34,	-1,	-1,	36,	-1,	1,	-1,	-1,	17,	2,	-1,	19,	-1,	-1,	15,	24,	27,	-1|
-1,	9,	19,	-1,	25,	-1,	-1,	21,	32,	-1,	-1,	-1,	12,	4,	-1,	-1,	-1,	-1,	-1,	-1,	-1,	7,	3,	-1,	-1,	14,	-1,	8,	28,	-1,	-1,	-1,	36,	-1,	-1,	-1|
-1,	-1,	17,	-1,	-1,	-1,	-1,	-1,	34,	-1,	-1,	35,	36,	-1,	-1,	-1,	-1,	3,	-1,	-1,	27,	25,	10,	14,	-1,	-1,	-1,	-1,	18,	11,	-1,	-1,	28,	7,	-1,	-1|
-1,	-1,	10,	-1,	-1,	-1,	7,	35,	-1,	8,	-1,	-1,	-1,	-1,	-1,	18,	-1,	21,	-1,	-1,	-1,	-1,	-1,	-1,	-1,	-1,	-1,	22,	-1,	-1,	29,	30,	12,	34,	-1,	28|
21,	-1,	-1,	22,	-1,	26,	-1,	-1,	-1,	18,	-1,	10,	-1,	27,	-1,	-1,	12,	-1,	-1,	7,	9,	3,	-1,	-1,	23,	-1,	-1,	-1,	-1,	35,	33,	25,	-1,	-1,	-1,	1|
-1,	1,	34,	-1,	-1,	-1,	21,	-1,	31,	-1,	-1,	-1,	-1,	3,	-1,	-1,	-1,	6,	-1,	-1,	13,	-1,	19,	30,	-1,	5,	-1,	-1,	16,	-1,	-1,	-1,	-1,	23,	-1,	35|
29,	31,	-1,	23,	-1,	12,	-1,	22,	-1,	-1,	30,	-1,	25,	-1,	35,	36,	34,	-1,	-1,	-1,	4,	-1,	-1,	10,	26,	-1,	-1,	-1,	-1,	-1,	-1,	-1,	-1,	20,	13,	-1|
-1,	-1,	-1,	-1,	-1,	-1,	-1,	16,	-1,	6,	-1,	14,	-1,	-1,	24,	-1,	10,	-1,	21,	-1,	17,	-1,	-1,	-1,	-1,	-1,	-1,	18,	-1,	-1,	27,	-1,	-1,	-1,	15,	26|
-1,	-1,	-1,	-1,	-1,	24,	-1,	-1,	-1,	3,	-1,	-1,	-1,	-1,	-1,	30,	32,	-1,	-1,	12,	35,	18,	23,	6,	-1,	33,	-1,	-1,	10,	-1,	-1,	-1,	-1,	-1,	-1,	9|
-1,	-1,	2,	-1,	-1,	9,	-1,	-1,	-1,	-1,	-1,	3,	-1,	6,	-1,	-1,	28,	-1,	-1,	-1,	-1,	-1,	-1,	15,	29,	-1,	-1,	-1,	-1,	32,	30,	-1,	-1,	-1,	14,	-1|
12,	14,	-1,	-1,	11,	-1,	-1,	28,	-1,	-1,	-1,	-1,	-1,	-1,	-1,	-1,	-1,	8,	-1,	-1,	-1,	16,	-1,	7,	31,	36,	-1,	23,	-1,	20,	-1,	-1,	-1,	-1,	21,	33|
31,	-1,	-1,	25,	29,	-1,	-1,	-1,	-1,	-1,	-1,	-1,	-1,	1,	-1,	14,	27,	-1,	12,	-1,	-1,	23,	-1,	32,	11,	-1,	-1,	-1,	-1,	24,	-1,	-1,	-1,	35,	-1,	-1|
-1,	-1,	-1,	-1,	-1,	-1,	-1,	-1,	-1,	-1,	-1,	20,	-1,	-1,	36,	-1,	23,	-1,	-1,	-1,	29,	-1,	6,	35,	13,	3,	-1,	21,	-1,	8,	-1,	-1,	16,	12,	10,	-1|
-1,	-1,	-1,	-1,	21,	-1,	33,	-1,	-1,	14,	-1,	19,	26,	12,	-1,	31,	35,	-1,	-1,	-1,	-1,	10,	-1,	-1,	-1,	6,	18,	-1,	7,	17,	3,	-1,	34,	-1,	-1,	4|
-1,	-1,	-1,	3,	8,	-1,	12,	-1,	-1,	23,	-1,	32,	13,	-1,	-1,	-1,	9,	19,	27,	30,	25,	22,	-1,	-1,	-1,	16,	-1,	-1,	2,	4,	31,	-1,	-1,	-1,	-1,	36|
-1,	15,	-1,	-1,	6,	1,	-1,	-1,	-1,	-1,	7,	-1,	5,	-1,	-1,	-1,	-1,	36,	-1,	-1,	14,	-1,	-1,	-1,	-1,	25,	-1,	-1,	-1,	-1,	-1,	21,	13,	10,	-1,	29|
-1,	19,	-1,	-1,	22,	-1,	34,	13,	15,	-1,	-1,	-1,	21,	-1,	6,	-1,	-1,	-1,	-1,	5,	-1,	-1,	1,	-1,	-1,	-1,	-1,	-1,	-1,	-1,	-1,	3,	-1,	4,	-1,	-1|
3,	-1,	-1,	2,	35,	29,	-1,	-1,	6,	25,	-1,	-1,	-1,	-1,	-1,	-1,	-1,	-1,	-1,	-1,	-1,	-1,	-1,	-1,	24,	-1,	-1,	-1,	-1,	-1,	12,	32,	18,	-1,	-1,	-1|
11,	-1,	4,	-1,	-1,	-1,	30,	-1,	10,	-1,	-1,	8,	-1,	34,	-1,	-1,	-1,	35,	-1,	-1,	-1,	21,	-1,	-1,	18,	-1,	-1,	-1,	-1,	-1,	26,	-1,	-1,	-1,	-1,	-1|
26,	-1,	-1,	24,	-1,	-1,	35,	4,	-1,	9,	-1,	-1,	-1,	8,	-1,	-1,	19,	12,	-1,	10,	-1,	-1,	-1,	-1,	32,	13,	21,	-1,	11,	-1,	-1,	-1,	-1,	-1,	-1,	-1|
-1,	-1,	-1,	32,	-1,	-1,	-1,	26,	-1,	1,	12,	5,	7,	-1,	-1,	-1,	-1,	16,	-1,	-1,	-1,	-1,	36,	-1,	-1,	8,	-1,	-1,	-1,	-1,	-1,	23,	35,	-1,	-1,	17|
-1,	-1,	3,	21,	4,	-1,	-1,	14,	-1,	-1,	-1,	6,	-1,	-1,	-1,	-1,	-1,	1,	30,	29,	-1,	-1,	-1,	13,	-1,	27,	25,	-1,	-1,	5,	35,	-1,	-1,	28,	-1,	-1|
-1,	-1,	-1,	-1,	-1,	6,	17,	-1,	30,	-1,	18,	-1,	-1,	-1,	-1,	-1,	-1,	-1,	-1,	-1,	-1,	11,	26,	-1,	-1,	-1,	-1,	-1,	-1,	7,	-1,	29,	-1,	-1,	-1,	-1|
-1,	-1,	-1,	-1,	-1,	-1,	25,	-1,	-1,	-1,	-1,	-1,	-1,	-1,	-1,	19,	-1,	13,	-1,	-1,	-1,	-1,	-1,	16,	3,	9,	22,	-1,	35,	18,	-1,	-1,	30,	-1,	-1,	20|
32,	-1,	-1,	29,	-1,	30,	28,	23,	-1,	-1,	-1,	24,	-1,	-1,	31,	-1,	11,	-1,	-1,	19,	-1,	-1,	-1,	5,	6,	-1,	-1,	-1,	-1,	-1,	-1,	-1,	3,	-1,	1,	-1|
10,	28,	-1,	-1,	-1,	-1,	-1,	5,	3,	7,	-1,	-1,	-1,	16,	-1,	23,	-1,	9,	6,	-1,	15,	2,	-1,	21,	-1,	-1,	-1,	-1,	-1,	-1,	-1,	-1,	-1,	36,	26,	-1|
-1,	20,	-1,	-1,	-1,	15,	-1,	-1,	-1,	-1,	-1,	-1,	-1,	-1,	27,	-1,	-1,	25,	-1,	-1,	1,	-1,	8,	-1,	28,	-1,	-1,	-1,	-1,	-1,	-1,	-1,	-1,	-1,	-1,	24|];
