benchmarks/INST_36x36/35/inst36x36_35_68.txt
6
1
-1	30	-1	1	-1	-1	-1	29	-1	-1	-1	-1	-1	-1	11	-1	-1	-1	-1	15	19	-1	-1	-1	-1	-1	-1	-1	-1	-1	14	-1	8	2	-1	-1
9	24	-1	-1	15	7	32	-1	-1	-1	-1	-1	-1	-1	-1	-1	1	2	-1	35	-1	-1	-1	-1	4	-1	-1	-1	-1	-1	13	-1	26	-1	28	21
-1	5	-1	10	19	-1	2	1	22	-1	-1	-1	32	9	-1	6	4	15	25	-1	-1	-1	12	-1	-1	28	16	-1	-1	26	-1	-1	29	30	-1	3
17	-1	23	11	-1	-1	-1	7	-1	10	33	-1	19	28	-1	-1	-1	18	1	-1	-1	-1	-1	-1	27	-1	-1	-1	32	-1	-1	24	20	22	-1	-1
-1	29	-1	-1	-1	-1	8	-1	-1	21	24	-1	-1	-1	-1	-1	-1	-1	-1	3	-1	-1	-1	-1	-1	-1	-1	-1	-1	-1	11	15	-1	6	-1	-1
-1	36	-1	-1	31	-1	5	25	-1	-1	19	30	-1	-1	-1	-1	-1	-1	18	33	-1	-1	-1	-1	-1	-1	-1	29	15	6	-1	-1	-1	-1	-1	-1
1	16	-1	34	-1	-1	3	20	-1	-1	-1	7	-1	-1	-1	-1	15	-1	-1	-1	-1	-1	-1	-1	-1	-1	-1	-1	-1	36	-1	26	-1	-1	-1	-1
7	18	29	-1	-1	36	24	-1	-1	-1	-1	-1	28	-1	19	1	6	-1	-1	16	30	15	-1	-1	5	-1	-1	-1	26	-1	23	-1	21	-1	-1	2
6	-1	-1	-1	26	11	13	-1	-1	-1	-1	15	-1	-1	-1	-1	16	-1	-1	18	-1	-1	-1	-1	-1	29	-1	34	-1	-1	1	-1	-1	-1	-1	-1
13	-1	28	14	-1	-1	10	-1	-1	-1	-1	-1	-1	-1	23	-1	-1	-1	-1	-1	22	-1	-1	1	35	-1	-1	-1	-1	-1	-1	33	-1	-1	27	-1
-1	9	-1	-1	-1	-1	-1	-1	32	29	1	-1	12	-1	-1	35	-1	-1	-1	-1	-1	7	-1	23	15	-1	33	-1	28	-1	-1	34	36	-1	16	-1
-1	-1	17	15	-1	-1	23	19	34	30	4	35	-1	21	-1	26	-1	3	-1	-1	-1	-1	10	-1	16	-1	-1	-1	-1	11	-1	-1	-1	7	12	5
-1	13	-1	-1	32	-1	-1	35	26	-1	-1	-1	1	-1	-1	-1	-1	-1	16	24	36	-1	33	-1	-1	17	-1	22	-1	25	-1	-1	-1	34	-1	28
-1	-1	14	22	30	-1	-1	-1	-1	-1	-1	10	17	27	-1	-1	12	-1	-1	-1	-1	-1	-1	-1	-1	-1	-1	-1	-1	35	-1	-1	32	16	-1	1
33	1	-1	-1	18	8	-1	-1	-1	-1	9	-1	-1	3	-1	-1	22	-1	-1	-1	13	-1	-1	-1	-1	-1	-1	-1	-1	27	-1	-1	10	-1	4	-1
-1	-1	-1	23	-1	-1	-1	22	-1	-1	-1	33	-1	-1	35	36	-1	28	-1	27	-1	8	14	-1	26	21	-1	9	-1	-1	24	-1	6	20	-1	-1
2	-1	36	-1	9	35	-1	-1	-1	-1	-1	-1	-1	13	-1	-1	10	-1	21	-1	17	1	-1	-1	-1	-1	34	-1	-1	12	-1	5	11	19	-1	-1
20	-1	-1	-1	-1	-1	-1	-1	-1	3	-1	28	-1	-1	-1	-1	32	-1	-1	-1	35	-1	-1	-1	8	-1	-1	4	-1	13	-1	-1	22	-1	31	-1
-1	-1	-1	16	-1	-1	-1	17	7	-1	-1	-1	-1	6	34	-1	-1	-1	-1	-1	-1	-1	18	-1	-1	10	-1	25	12	-1	-1	-1	-1	26	-1	-1
12	14	13	-1	11	-1	-1	-1	-1	-1	26	18	-1	-1	4	-1	-1	8	-1	-1	-1	-1	17	7	31	-1	35	-1	-1	20	25	-1	24	-1	-1	33
31	-1	-1	25	-1	-1	-1	-1	5	15	-1	-1	10	-1	-1	-1	27	-1	12	-1	-1	23	-1	-1	-1	-1	-1	-1	-1	24	-1	-1	2	35	-1	6
18	-1	24	-1	-1	-1	27	-1	-1	-1	-1	-1	-1	25	-1	33	23	-1	14	1	29	-1	6	-1	-1	-1	5	-1	9	8	-1	7	16	-1	-1	22
-1	32	5	27	-1	-1	-1	-1	8	-1	-1	19	-1	-1	-1	-1	35	29	-1	13	-1	-1	24	-1	-1	-1	-1	-1	-1	-1	3	1	-1	-1	-1	4
-1	-1	15	-1	-1	34	12	-1	24	23	-1	-1	-1	7	17	21	-1	19	-1	-1	25	-1	-1	-1	-1	-1	-1	-1	-1	-1	31	-1	-1	-1	-1	-1
-1	-1	-1	8	-1	1	18	11	-1	-1	-1	-1	-1	-1	-1	-1	-1	-1	-1	-1	14	-1	-1	-1	-1	25	-1	-1	-1	28	-1	-1	13	10	-1	-1
28	-1	-1	-1	22	-1	-1	-1	-1	-1	-1	-1	21	-1	6	10	-1	-1	-1	5	-1	-1	1	24	12	-1	29	-1	-1	14	-1	-1	7	4	-1	30
-1	10	9	-1	35	-1	-1	-1	-1	-1	-1	-1	-1	26	1	-1	17	-1	11	31	-1	-1	13	-1	-1	-1	27	-1	-1	-1	-1	32	-1	5	-1	-1
-1	-1	4	12	-1	-1	-1	-1	-1	-1	-1	-1	22	-1	13	-1	14	-1	2	-1	33	-1	-1	-1	-1	-1	-1	-1	5	9	-1	28	-1	-1	-1	-1
26	23	30	-1	36	5	-1	-1	-1	9	-1	29	-1	-1	33	-1	19	12	7	10	18	6	-1	17	-1	-1	21	-1	11	-1	-1	-1	-1	-1	-1	-1
-1	21	27	32	13	25	-1	26	-1	1	-1	-1	7	-1	-1	-1	-1	-1	20	-1	-1	-1	-1	-1	-1	-1	10	-1	4	15	2	23	-1	11	33	-1
19	11	3	-1	-1	-1	-1	-1	-1	-1	15	-1	-1	-1	-1	-1	-1	-1	30	-1	-1	-1	9	-1	-1	-1	-1	-1	-1	-1	35	-1	-1	-1	-1	-1
-1	-1	22	-1	-1	-1	17	-1	-1	-1	-1	-1	-1	33	-1	15	-1	-1	35	36	-1	11	26	25	2	24	31	1	-1	-1	-1	-1	-1	21	5	8
5	-1	1	36	-1	14	25	-1	-1	31	27	-1	-1	29	-1	-1	8	13	-1	-1	-1	-1	-1	16	-1	-1	22	-1	35	-1	34	-1	-1	-1	-1	-1
32	2	-1	29	12	-1	28	23	21	13	-1	-1	-1	-1	-1	-1	11	7	-1	-1	-1	33	-1	5	-1	15	-1	26	-1	-1	10	-1	-1	17	-1	-1
-1	28	-1	31	24	-1	-1	-1	-1	-1	35	-1	-1	-1	-1	-1	-1	-1	-1	-1	-1	2	-1	-1	-1	-1	-1	-1	17	-1	-1	-1	25	-1	-1	-1
-1	-1	-1	-1	-1	-1	9	-1	-1	4	29	-1	-1	-1	-1	-1	-1	25	-1	14	1	-1	8	-1	-1	-1	23	11	19	-1	-1	-1	-1	13	-1	-1
